=obj= -40
x2                                                        1.000000
x3                                                        1.000000
x4                                                        1.000000
x5                                                        1.000000
x6                                                        1.000000
x8                                                        1.000000
x9                                                        1.000000
x10                                                       1.000000
x11                                                       1.000000
x13                                                       1.000000
x15                                                       1.000000
x16                                                       1.000000
x17                                                       1.000000
x18                                                       1.000000
x20                                                       1.000000
x22                                                       1.000000
x23                                                       1.000000
x24                                                       1.000000
x25                                                       1.000000
x26                                                       1.000000
x30                                                       1.000000
x33                                                       1.000000
x34                                                       1.000000
x36                                                       1.000000
x38                                                       1.000000
x39                                                       1.000000
x41                                                       1.000000
x43                                                       1.000000
x44                                                       1.000000
x46                                                       1.000000
x47                                                       1.000000
x48                                                       1.000000
x49                                                       1.000000
x50                                                       1.000000
x51                                                       1.000000
x52                                                       1.000000
x54                                                       1.000000
x55                                                       1.000000
x56                                                       1.000000
x57                                                       1.000000
c2_4_5                                                    1.000000
c2_4_19                                                   1.000000
c2_26_4                                                   1.000000
c2_28_4                                                   1.000000
c2_5_52                                                   1.000000
c2_19_7                                                   1.000000
c2_7_45                                                   1.000000
c2_23_28                                                  1.000000
c2_46_23                                                  1.000000
c2_25_26                                                  1.000000
c2_53_25                                                  1.000000
c2_45_46                                                  1.000000
c2_52_53                                                  1.000000
c3_1_0                                                    1.000000
c3_0_34                                                   1.000000
c3_2_1                                                    1.000000
c3_14_2                                                   1.000000
c3_8_9                                                    1.000000
c3_34_8                                                   1.000000
c3_9_10                                                   1.000000
c3_10_11                                                  1.000000
c3_11_14                                                  1.000000
c4_23_0                                                   1.000000
c4_0_58                                                   1.000000
c4_13_12                                                  1.000000
c4_12_23                                                  1.000000
c4_58_13                                                  1.000000
c5_44_43                                                  1.000000
c5_43_45                                                  1.000000
c5_45_44                                                  1.000000
c6_11_10                                                  1.000000
c6_10_53                                                  1.000000
c6_15_11                                                  1.000000
c6_43_15                                                  1.000000
c6_50_43                                                  1.000000
c6_52_50                                                  1.000000
c6_53_52                                                  1.000000
c8_1_29                                                   1.000000
c8_39_1                                                   1.000000
c8_29_35                                                  1.000000
c8_35_36                                                  1.000000
c8_36_39                                                  1.000000
c9_1_39                                                   1.000000
c9_44_1                                                   1.000000
c9_39_40                                                  1.000000
c9_40_41                                                  1.000000
c9_41_42                                                  1.000000
c9_42_43                                                  1.000000
c9_43_44                                                  1.000000
c10_13_22                                                 1.000000
c10_37_13                                                 1.000000
c10_22_21                                                 1.000000
c10_21_59                                                 1.000000
c10_36_37                                                 1.000000
c10_59_36                                                 1.000000
c11_0_48                                                  1.000000
c11_52_0                                                  1.000000
c11_49_17                                                 1.000000
c11_17_50                                                 1.000000
c11_48_49                                                 1.000000
c11_50_52                                                 1.000000
c13_17_42                                                 1.000000
c13_50_17                                                 1.000000
c13_42_41                                                 1.000000
c13_41_51                                                 1.000000
c13_51_50                                                 1.000000
c15_10_9                                                  1.000000
c15_9_33                                                  1.000000
c15_33_10                                                 1.000000
c16_16_15                                                 1.000000
c16_15_43                                                 1.000000
c16_17_16                                                 1.000000
c16_42_17                                                 1.000000
c16_43_42                                                 1.000000
c17_19_4                                                  1.000000
c17_4_56                                                  1.000000
c17_18_19                                                 1.000000
c17_55_18                                                 1.000000
c17_56_55                                                 1.000000
c18_8_7                                                   1.000000
c18_7_19                                                  1.000000
c18_24_8                                                  1.000000
c18_19_18                                                 1.000000
c18_18_20                                                 1.000000
c18_20_21                                                 1.000000
c18_21_22                                                 1.000000
c18_22_23                                                 1.000000
c18_23_24                                                 1.000000
c20_36_35                                                 1.000000
c20_35_38                                                 1.000000
c20_37_36                                                 1.000000
c20_38_37                                                 1.000000
c22_4_3                                                   1.000000
c22_3_8                                                   1.000000
c22_56_4                                                  1.000000
c22_8_34                                                  1.000000
c22_33_9                                                  1.000000
c22_9_57                                                  1.000000
c22_31_32                                                 1.000000
c22_34_31                                                 1.000000
c22_32_33                                                 1.000000
c22_57_56                                                 1.000000
c23_43_24                                                 1.000000
c23_24_46                                                 1.000000
c23_45_43                                                 1.000000
c23_46_45                                                 1.000000
c24_40_25                                                 1.000000
c24_25_51                                                 1.000000
c24_41_40                                                 1.000000
c24_51_41                                                 1.000000
c25_1_44                                                  1.000000
c25_47_1                                                  1.000000
c25_44_47                                                 1.000000
c26_0_23                                                  1.000000
c26_34_0                                                  1.000000
c26_23_30                                                 1.000000
c26_30_31                                                 1.000000
c26_31_34                                                 1.000000
c30_13_15                                                 1.000000
c30_22_13                                                 1.000000
c30_15_16                                                 1.000000
c30_16_30                                                 1.000000
c30_23_22                                                 1.000000
c30_30_23                                                 1.000000
c33_25_24                                                 1.000000
c33_24_43                                                 1.000000
c33_51_25                                                 1.000000
c33_43_50                                                 1.000000
c33_50_51                                                 1.000000
c34_39_36                                                 1.000000
c34_36_59                                                 1.000000
c34_54_39                                                 1.000000
c34_58_54                                                 1.000000
c34_59_58                                                 1.000000
c36_24_23                                                 1.000000
c36_23_46                                                 1.000000
c36_46_24                                                 1.000000
c38_8_55                                                  1.000000
c38_57_8                                                  1.000000
c38_55_56                                                 1.000000
c38_56_57                                                 1.000000
c39_7_6                                                   1.000000
c39_6_49                                                  1.000000
c39_45_7                                                  1.000000
c39_44_45                                                 1.000000
c39_47_44                                                 1.000000
c39_48_47                                                 1.000000
c39_49_48                                                 1.000000
c41_5_4                                                   1.000000
c41_4_26                                                  1.000000
c41_6_5                                                   1.000000
c41_21_6                                                  1.000000
c41_27_13                                                 1.000000
c41_13_58                                                 1.000000
c41_59_21                                                 1.000000
c41_26_27                                                 1.000000
c41_58_59                                                 1.000000
c43_16_17                                                 1.000000
c43_58_16                                                 1.000000
c43_17_18                                                 1.000000
c43_18_55                                                 1.000000
c43_55_54                                                 1.000000
c43_54_58                                                 1.000000
c44_6_20                                                  1.000000
c44_49_6                                                  1.000000
c44_18_17                                                 1.000000
c44_17_49                                                 1.000000
c44_20_18                                                 1.000000
c46_12_11                                                 1.000000
c46_11_15                                                 1.000000
c46_23_12                                                 1.000000
c46_15_13                                                 1.000000
c46_13_27                                                 1.000000
c46_28_23                                                 1.000000
c46_27_28                                                 1.000000
c47_3_2                                                   1.000000
c47_2_14                                                  1.000000
c47_8_3                                                   1.000000
c47_6_7                                                   1.000000
c47_38_6                                                  1.000000
c47_7_8                                                   1.000000
c47_14_13                                                 1.000000
c47_13_37                                                 1.000000
c47_37_38                                                 1.000000
c48_8_24                                                  1.000000
c48_55_8                                                  1.000000
c48_10_40                                                 1.000000
c48_53_10                                                 1.000000
c48_24_25                                                 1.000000
c48_25_53                                                 1.000000
c48_40_39                                                 1.000000
c48_39_54                                                 1.000000
c48_54_55                                                 1.000000
c49_0_52                                                  1.000000
c49_58_0                                                  1.000000
c49_5_6                                                   1.000000
c49_52_5                                                  1.000000
c49_6_38                                                  1.000000
c49_30_16                                                 1.000000
c49_16_58                                                 1.000000
c49_29_30                                                 1.000000
c49_35_29                                                 1.000000
c49_38_35                                                 1.000000
c50_9_8                                                   1.000000
c50_8_57                                                  1.000000
c50_57_9                                                  1.000000
c51_20_6                                                  1.000000
c51_6_21                                                  1.000000
c51_21_20                                                 1.000000
c52_11_12                                                 1.000000
c52_14_11                                                 1.000000
c52_12_13                                                 1.000000
c52_13_14                                                 1.000000
c54_10_33                                                 1.000000
c54_40_10                                                 1.000000
c54_26_25                                                 1.000000
c54_25_40                                                 1.000000
c54_32_26                                                 1.000000
c54_33_32                                                 1.000000
c55_0_1                                                   1.000000
c55_48_0                                                  1.000000
c55_1_47                                                  1.000000
c55_47_48                                                 1.000000
c56_27_26                                                 1.000000
c56_26_32                                                 1.000000
c56_28_27                                                 1.000000
c56_29_28                                                 1.000000
c56_30_29                                                 1.000000
c56_31_30                                                 1.000000
c56_32_31                                                 1.000000
c57_1_2                                                   1.000000
c57_29_1                                                  1.000000
c57_2_3                                                   1.000000
c57_3_4                                                   1.000000
c57_4_28                                                  1.000000
c57_28_29                                                 1.000000
p0_48_1                                                   1.000000
p0_34_23                                                  1.000000
p0_1_34                                                   1.000000
p0_52_48                                                  1.000000
p0_58_52                                                  1.000000
p0_23_58                                                  1.000000
p1_2_0                                                    1.000000
p1_29_2                                                   1.000000
p1_39_29                                                  1.000000
p1_44_39                                                  1.000000
p1_47_44                                                  1.000000
p1_0_47                                                   1.000000
p2_1_3_14                                                 1.000000
p3_2_4_8                                                  1.000000
p4_56_3                                                   1.000000
p4_28_5                                                   1.000000
p4_26_19                                                  1.000000
p4_5_26                                                   1.000000
p4_3_28                                                   1.000000
p4_19_56                                                  1.000000
p6_21_5                                                   1.000000
p6_38_7                                                   1.000000
p6_49_20                                                  1.000000
p6_20_21                                                  1.000000
p6_5_38                                                   1.000000
p6_7_49                                                   1.000000
p7_45_6                                                   1.000000
p7_6_8                                                    1.000000
p7_8_19                                                   1.000000
p7_19_45                                                  1.000000
p8_24_7                                                   1.000000
p8_7_3                                                    1.000000
p8_34_9                                                   1.000000
p8_55_24                                                  1.000000
p8_3_34                                                   1.000000
p8_57_55                                                  1.000000
p8_9_57                                                   1.000000
p9_57_8                                                   1.000000
p9_8_10                                                   1.000000
p9_10_33                                                  1.000000
p9_33_57                                                  1.000000
p10_33_9                                                  1.000000
p10_9_11                                                  1.000000
p10_40_33                                                 1.000000
p10_53_40                                                 1.000000
p10_11_53                                                 1.000000
p11_15_10                                                 1.000000
p11_14_12                                                 1.000000
p11_10_14                                                 1.000000
p11_12_15                                                 1.000000
p12_11_13_23                                              1.000000
p13_58_12                                                 1.000000
p13_12_14                                                 1.000000
p13_22_15                                                 1.000000
p13_37_22                                                 1.000000
p13_15_27                                                 1.000000
p13_14_37                                                 1.000000
p13_27_58                                                 1.000000
p14_13_11_2                                               1.000000
p15_11_13                                                 1.000000
p15_43_11                                                 1.000000
p15_13_16                                                 1.000000
p15_16_43                                                 1.000000
p16_17_15                                                 1.000000
p16_58_17                                                 1.000000
p16_15_30                                                 1.000000
p16_30_58                                                 1.000000
p17_42_16                                                 1.000000
p17_16_18                                                 1.000000
p17_50_42                                                 1.000000
p17_18_49                                                 1.000000
p17_49_50                                                 1.000000
p18_20_17                                                 1.000000
p18_55_19                                                 1.000000
p18_19_20                                                 1.000000
p18_17_55                                                 1.000000
p21_6_20                                                  1.000000
p21_59_6                                                  1.000000
p21_20_22                                                 1.000000
p21_22_59                                                 1.000000
p23_30_22                                                 1.000000
p23_28_12                                                 1.000000
p23_12_0                                                  1.000000
p23_22_24                                                 1.000000
p23_46_28                                                 1.000000
p23_0_30                                                  1.000000
p23_24_46                                                 1.000000
p24_46_23                                                 1.000000
p24_23_8                                                  1.000000
p24_8_25                                                  1.000000
p24_25_43                                                 1.000000
p24_43_46                                                 1.000000
p25_51_24                                                 1.000000
p25_53_26                                                 1.000000
p25_26_40                                                 1.000000
p25_40_51                                                 1.000000
p25_24_53                                                 1.000000
p26_32_25                                                 1.000000
p26_25_4                                                  1.000000
p26_4_27                                                  1.000000
p26_27_32                                                 1.000000
p27_26_13_28                                              1.000000
p28_29_27                                                 1.000000
p28_27_23                                                 1.000000
p28_23_4                                                  1.000000
p28_4_29                                                  1.000000
p29_30_28                                                 1.000000
p29_28_1                                                  1.000000
p29_35_30                                                 1.000000
p29_1_35                                                  1.000000
p30_31_29                                                 1.000000
p30_16_23                                                 1.000000
p30_29_16                                                 1.000000
p30_23_31                                                 1.000000
p35_29_36_38                                              1.000000
p36_37_35                                                 1.000000
p36_59_37                                                 1.000000
p36_35_39                                                 1.000000
p36_39_59                                                 1.000000
p37_36_13_38                                              1.000000
p39_54_36                                                 1.000000
p39_36_1                                                  1.000000
p39_1_40                                                  1.000000
p39_40_54                                                 1.000000
p40_10_39                                                 1.000000
p40_41_25                                                 1.000000
p40_25_10                                                 1.000000
p40_39_41                                                 1.000000
p41_40_42_51                                              1.000000
p43_15_42                                                 1.000000
p43_45_24                                                 1.000000
p43_50_15                                                 1.000000
p43_42_44                                                 1.000000
p43_44_45                                                 1.000000
p43_24_50                                                 1.000000
p44_45_43                                                 1.000000
p44_47_45                                                 1.000000
p44_43_1                                                  1.000000
p44_1_47                                                  1.000000
p45_43_44                                                 1.000000
p45_46_43                                                 1.000000
p45_7_46                                                  1.000000
p45_44_7                                                  1.000000
p47_44_1_48                                               1.000000
p49_48_17_6                                               1.000000
p50_52_43                                                 1.000000
p50_43_51                                                 1.000000
p50_51_17                                                 1.000000
p50_17_52                                                 1.000000
p52_53_50                                                 1.000000
p52_5_53                                                  1.000000
p52_0_5                                                   1.000000
p52_50_0                                                  1.000000
p53_52_25_10                                              1.000000
p54_39_55_58                                              1.000000
p55_18_54                                                 1.000000
p55_56_18                                                 1.000000
p55_54_8                                                  1.000000
p55_8_56                                                  1.000000
p56_55_57_4                                               1.000000
p58_59_54                                                 1.000000
p58_13_59                                                 1.000000
p58_54_16                                                 1.000000
p58_0_13                                                  1.000000
p58_16_0                                                  1.000000
x14380                                                    20.000000
